c description: Random 3-CNF over 19 variables and 81 clauses
c generator: CNFgen (0.9.2)
c copyright: (C) 2012-2022 Massimo Lauria <massimo.lauria@uniroma1.it>
c url: https://massimolauria.net/cnfgen
c command line: cnfgen --output CNF_4.28/19_bit_81_434.cnf randkcnf 3 19 81
c
p cnf 19 81
-11 -12 -13 0
6 -11 -19 0
-5 8 19 0
-5 13 -15 0
2 -8 14 0
-3 4 -17 0
3 13 -17 0
4 -12 19 0
-2 -5 15 0
-3 11 -17 0
-2 -15 -19 0
-3 -4 -13 0
-2 -9 14 0
6 -7 -18 0
1 -12 13 0
-8 -13 14 0
-7 -13 15 0
1 -5 17 0
13 -14 15 0
7 -14 -16 0
2 -16 -19 0
2 -6 19 0
-6 13 17 0
-9 12 17 0
-7 -9 -11 0
8 11 13 0
3 -4 17 0
3 -16 18 0
-14 17 -19 0
-7 -17 19 0
2 -4 -7 0
4 -8 16 0
2 -8 -14 0
-2 7 9 0
-5 9 10 0
-11 -13 -18 0
-5 15 -17 0
8 11 -14 0
3 -15 -16 0
14 16 19 0
7 9 10 0
-2 -17 18 0
2 4 -5 0
11 -14 16 0
7 -15 17 0
-5 8 -17 0
1 -4 -14 0
1 -12 16 0
-7 15 19 0
7 -11 19 0
-8 11 -16 0
1 -3 6 0
2 -7 -16 0
8 9 10 0
-1 13 17 0
2 4 -12 0
-5 7 17 0
2 -13 15 0
-2 -16 19 0
1 -7 -15 0
-10 -12 -17 0
1 3 14 0
-6 10 -14 0
9 -10 -13 0
-8 -13 16 0
-7 -9 10 0
-4 9 17 0
9 -16 -18 0
12 -13 14 0
-1 -7 -16 0
-11 -12 18 0
14 17 -18 0
6 12 -14 0
4 -10 12 0
11 16 17 0
-15 -16 19 0
2 6 10 0
16 -17 18 0
3 -8 -17 0
-6 -9 18 0
8 9 14 0
